\ This file has been generated by DOcplex
\ ENCODING=ISO-8859-1
\Problem name: Orandom16842_9.lp

Minimize
 obj: - 32.000016691045 x0 - 16.000008345522 x1 - 8.000004172761 x2
      - 36.000016691045 x3 - 18.000008345522 x4 - 9.000004172761 x5
      - 28.000016691045 x6 - 14.000008345522 x7 - 7.000004172761 x8 + [
      48.000009537740 x0^2 + 48.000009537740 x0*x1 + 24.000004768870 x0*x2
      + 32.000019075480 x0*x3 + 16.000009537740 x0*x4 + 8.000004768870 x0*x5
      + 32.000019075480 x0*x6 + 16.000009537740 x0*x7 + 8.000004768870 x0*x8
      + 12.000002384435 x1^2 + 12.000002384435 x1*x2 + 16.000009537740 x1*x3
      + 8.000004768870 x1*x4 + 4.000002384435 x1*x5 + 16.000009537740 x1*x6
      + 8.000004768870 x1*x7 + 4.000002384435 x1*x8 + 3.000000596109 x2^2
      + 8.000004768870 x2*x3 + 4.000002384435 x2*x4 + 2.000001192217 x2*x5
      + 8.000004768870 x2*x6 + 4.000002384435 x2*x7 + 2.000001192217 x2*x8
      + 48.000009537740 x3^2 + 48.000009537740 x3*x4 + 24.000004768870 x3*x5
      + 32.000019075480 x3*x6 + 16.000009537740 x3*x7 + 8.000004768870 x3*x8
      + 12.000002384435 x4^2 + 12.000002384435 x4*x5 + 16.000009537740 x4*x6
      + 8.000004768870 x4*x7 + 4.000002384435 x4*x8 + 3.000000596109 x5^2
      + 8.000004768870 x5*x6 + 4.000002384435 x5*x7 + 2.000001192217 x5*x8
      + 16.000009537740 x6^2 + 16.000009537740 x6*x7 + 8.000004768870 x6*x8
      + 4.000002384435 x7^2 + 4.000002384435 x7*x8 + 1.000000596109 x8^2 ]/2 +
      24.500014604664
Subject To

Bounds
 0 <= x0 <= 1
 0 <= x1 <= 1
 0 <= x2 <= 1
 0 <= x3 <= 1
 0 <= x4 <= 1
 0 <= x5 <= 1
 0 <= x6 <= 1
 0 <= x7 <= 1
 0 <= x8 <= 1

Binaries
 x0 x1 x2 x3 x4 x5 x6 x7 x8
End
